nNurses = 179;
nHours = 32;
minHours = 3;
maxHours = 10;
maxConsec = 9;
maxPresence = 17;
demand = [48, 45, 47, 42, 47, 49, 48, 49, 45, 41, 36, 39, 41, 37, 42, 46, 42, 47, 48, 49, 50, 49, 46, 41, 41, 36, 37, 35, 36, 32, 35, 32];
